Version identifier: 22.1.0.0 | 2022-03-09 | 1a383f8ce
CPXPARAM_Threads                                 1
CPXPARAM_MIP_Strategy_VariableSelect             3
CPXPARAM_TimeLimit                               599.99176536699997
Tried aggregator 1 time.
MIP Presolve eliminated 13 rows and 0 columns.
MIP Presolve modified 1 coefficients.
Reduced MIP has 1211 rows, 4800 columns, and 51772 nonzeros.
Reduced MIP has 4800 binaries, 0 generals, 0 SOSs, and 0 indicators.
Presolve time = 0.04 sec. (25.51 ticks)
Probing time = 0.01 sec. (5.37 ticks)
Tried aggregator 1 time.
Detecting symmetries...
Reduced MIP has 1211 rows, 4800 columns, and 51772 nonzeros.
Reduced MIP has 4800 binaries, 0 generals, 0 SOSs, and 0 indicators.
Presolve time = 0.04 sec. (31.18 ticks)
Probing time = 0.01 sec. (5.37 ticks)
Clique table members: 795.
MIP emphasis: balance optimality and feasibility.
MIP search method: dynamic search.
Parallel mode: none, using 1 thread.
Root relaxation solution time = 0.64 sec. (620.64 ticks)

        Nodes                                         Cuts/
   Node  Left     Objective  IInf  Best Integer    Best Bound    ItCnt     Gap

      0     0        0.0000   904                      0.0000     3053         
      0     0        0.0000   521                     Cuts: 6     7343         
      0     0        0.0000   292                     Cuts: 2     7933         
      0     0        0.0000   706                    Cuts: 46    13006         
      0     0        0.0000   514                     Cuts: 7    18088         
      0     0        0.0000   687                     Cuts: 7    22471         
      0     2        0.0000   350                      0.0000    22471         
Elapsed time = 32.49 sec. (35317.14 ticks, tree = 0.01 MB, solutions = 0)
      2     2        0.0000   524                      0.0000    26288         
      3     3        0.0000   713                      0.0000    33275         
      4     4        0.0000   519                      0.0000    33373         
      5     5        0.0000   701                      0.0000    42428         
      6     6        0.0000   527                      0.0000    42813         
      7     7        0.0000   488                      0.0000    49975         
      8     8        0.0000   478                      0.0000    50192         
      9     7    infeasible                            0.0000    56247         
     10     8        0.0000   623                      0.0000    57335         
     12    10        0.0000   551                      0.0000    58354         
Elapsed time = 42.08 sec. (45966.77 ticks, tree = 0.04 MB, solutions = 0)
     15    13        0.0000   433                      0.0000    67057         
     18    14        0.0000   442                      0.0000    70932         
     21    17        0.0000   532                      0.0000    88434         
     22    18        0.0000   465                      0.0000    92816         
     25    19        0.0000   455                      0.0000    94889         
     28    22        0.0000   408                      0.0000    96576         
     32    26        0.0000   415                      0.0000    99076         
     36    30        0.0000   429                      0.0000   100678         
     38    32        0.0000   366                      0.0000   113702         
     39    32        0.0000   326                      0.0000   119804         
Elapsed time = 56.07 sec. (61261.84 ticks, tree = 0.09 MB, solutions = 0)
     42    33        0.0000   395                      0.0000   122240         
     45    36        0.0000   304                      0.0000   123861         
     50    36    infeasible                            0.0000   129897         
     54    36    infeasible                            0.0000   132255         
     59    39        0.0000   224                      0.0000   134946         
     64    40        0.0000   245                      0.0000   140468         
     70    44        0.0000   222                      0.0000   142712         
     77    43    infeasible                            0.0000   145367         
     81    41    infeasible                            0.0000   147134         
     83    39    infeasible                            0.0000   147714         
Elapsed time = 65.78 sec. (71895.28 ticks, tree = 0.10 MB, solutions = 0)
     86    36    infeasible                            0.0000   148486         
     89    35    infeasible                            0.0000   150046         
     93    37        0.0000   308                      0.0000   152586         
     98    38    infeasible                            0.0000   155230         
    103    41        0.0000   258                      0.0000   157755         
    108    42    infeasible                            0.0000   162096         
    113    45        0.0000   266                      0.0000   164477         
    118    50        0.0000   262                      0.0000   166354         
    123    53        0.0000   240                      0.0000   168823         
    128    52    infeasible                            0.0000   173545         
Elapsed time = 75.57 sec. (82694.68 ticks, tree = 0.13 MB, solutions = 0)
    133    52    infeasible                            0.0000   176081         
    139    52    infeasible                            0.0000   180107         
    145    48    infeasible                            0.0000   182383         
    147    46    infeasible                            0.0000   183001         
    153    46    infeasible                            0.0000   185860         
    158    49        0.0000   256                      0.0000   188412         
    164    51        0.0000   255                      0.0000   190630         
    171    52        0.0000   264                      0.0000   193432         
    177    50    infeasible                            0.0000   195681         
    182    47    infeasible                            0.0000   197929         
Elapsed time = 85.34 sec. (93413.58 ticks, tree = 0.12 MB, solutions = 0)
    188    47    infeasible                            0.0000   201041         
    195    48        0.0000   273                      0.0000   203873         
    201    46    infeasible                            0.0000   207651         
    207    44    infeasible                            0.0000   211154         
    212    47        0.0000   276                      0.0000   213744         
    218    48        0.0000   240                      0.0000   216604         
    224    48        0.0000   248                      0.0000   219608         
    227    49        0.0000   226                      0.0000   223948         
    231    51        0.0000   251                      0.0000   226660         
    236    52        0.0000   203                      0.0000   231991         
Elapsed time = 95.13 sec. (104211.08 ticks, tree = 0.13 MB, solutions = 0)
    239    55        0.0000   236                      0.0000   236868         
    245    49    infeasible                            0.0000   238725         
    250    48    infeasible                            0.0000   242545         
    258    48        0.0000   253                      0.0000   245389         
    264    50    infeasible                            0.0000   247762         
    271    49    infeasible                            0.0000   249624         
    278    50        0.0000   239                      0.0000   252462         
    285    49        0.0000   217                      0.0000   256701         
    292    48        0.0000   269                      0.0000   260003         
    297    51        0.0000   248                      0.0000   262332         
Elapsed time = 104.97 sec. (114975.44 ticks, tree = 0.12 MB, solutions = 0)
    304    50        0.0000   258                      0.0000   265360         
    310    48        0.0000   254                      0.0000   268123         
    316    50        0.0000   256                      0.0000   271282         
    324    48    infeasible                            0.0000   274209         
    332    48        0.0000   254                      0.0000   276806         
    338    48    infeasible                            0.0000   279736         
    344    48    infeasible                            0.0000   282591         
    350    52    infeasible                            0.0000   284582         
    356    52        0.0000   216                      0.0000   287726         
    362    48        0.0000   271                      0.0000   290573         
Elapsed time = 114.48 sec. (125438.26 ticks, tree = 0.12 MB, solutions = 0)
    368    48        0.0000   270                      0.0000   293091         
    376    47        0.0000   253                      0.0000   295570         
    382    45    infeasible                            0.0000   299250         
    387    48        0.0000   290                      0.0000   301527         
    390    49        0.0000   287                      0.0000   303170         
    399    48        0.0000   270                      0.0000   306035         
    405    48        0.0000   265                      0.0000   309156         
    412    47    infeasible                            0.0000   312098         
    417    48    infeasible                            0.0000   314957         
    423    48    infeasible                            0.0000   317565         
Elapsed time = 123.72 sec. (135662.85 ticks, tree = 0.12 MB, solutions = 0)
    430    47    infeasible                            0.0000   321440         
    436    47    infeasible                            0.0000   324179         
    440    49        0.0000   246                      0.0000   325475         
    447    48    infeasible                            0.0000   328868         
    454    49        0.0000   228                      0.0000   331575         
    461    48        0.0000   239                      0.0000   334751         
    470    47        0.0000   264                      0.0000   337569         
    475    50        0.0000   260                      0.0000   340114         
    482    51        0.0000   267                      0.0000   342062         
    501    52        0.0000   265                      0.0000   350674         
Elapsed time = 135.99 sec. (149092.98 ticks, tree = 0.13 MB, solutions = 0)
    522    53        0.0000   254                      0.0000   361626         
    542    51        0.0000   259                      0.0000   370999         
    563    50        0.0000   307                      0.0000   380441         
    580    51        0.0000   257                      0.0000   391183         
    599    50        0.0000   289                      0.0000   405272         
    617    52    infeasible                            0.0000   417558         
    633    50    infeasible                            0.0000   431605         
    652    54        0.0000   232                      0.0000   441726         
    672    56    infeasible                            0.0000   451019         
    695    56        0.0000   224                      0.0000   460026         
Elapsed time = 172.52 sec. (189300.96 ticks, tree = 0.14 MB, solutions = 0)
    715    56        0.0000   249                      0.0000   470328         
    741    54    infeasible                            0.0000   479547         
    767    52        0.0000   246                      0.0000   491169         
    791    50    infeasible                            0.0000   507764         
    812    53    infeasible                            0.0000   521060         
    840    52    infeasible                            0.0000   532308         
    865    53        0.0000   238                      0.0000   541641         
    889    51    infeasible                            0.0000   553330         
    913    49    infeasible                            0.0000   565312         
    936    48    infeasible                            0.0000   577875         
Elapsed time = 208.05 sec. (228487.53 ticks, tree = 0.12 MB, solutions = 0)
    955    52        0.0000   274                      0.0000   586957         
    973    56        0.0000   282                      0.0000   595708         
    994    57        0.0000   266                      0.0000   607063         
   1013    56        0.0000   238                      0.0000   616959         
   1038    55        0.0000   246                      0.0000   625825         
   1061    56        0.0000   245                      0.0000   637576         
   1080    55    infeasible                            0.0000   649295         
   1100    56        0.0000   235                      0.0000   660549         
   1124    54    infeasible                            0.0000   670524         
   1150    56        0.0000   268                      0.0000   680877         
Elapsed time = 244.19 sec. (268306.59 ticks, tree = 0.13 MB, solutions = 0)
   1175    53    infeasible                            0.0000   696637         
   1194    52    infeasible                            0.0000   712056         
   1214    51    infeasible                            0.0000   722794         
   1232    62        0.0000   243                      0.0000   734589         
   1255    67        0.0000   232                      0.0000   744306         
   1278    60    infeasible                            0.0000   755345         
   1300    61    infeasible                            0.0000   767111         
   1320    63        0.0000   272                      0.0000   778790         
   1341    64    infeasible                            0.0000   788364         
   1364    67    infeasible                            0.0000   798955         
Elapsed time = 280.39 sec. (308364.80 ticks, tree = 0.16 MB, solutions = 0)
   1385    68    infeasible                            0.0000   811927         
   1409    68    infeasible                            0.0000   822291         
   1435    66        0.0000   214                      0.0000   833895         
   1462    67        0.0000   232                      0.0000   844624         
   1489    64    infeasible                            0.0000   853771         
   1510    65        0.0000   222                      0.0000   865676         
   1534    67    infeasible                            0.0000   876325         
   1555    66        0.0000   231                      0.0000   886858         
   1576    65        0.0000   208                      0.0000   896050         
   1599    62        0.0000   243                      0.0000   909462         
Elapsed time = 315.66 sec. (347457.07 ticks, tree = 0.15 MB, solutions = 0)
   1620    63        0.0000   225                      0.0000   921292         
   1641    62        0.0000   238                      0.0000   932796         
   1666    64    infeasible                            0.0000   941833         
   1691    65        0.0000   227                      0.0000   952431         
   1717    61    infeasible                            0.0000   964043         
   1736    64    infeasible                            0.0000   976261         
   1761    62    infeasible                            0.0000   986819         
   1785    60    infeasible                            0.0000   998338         
   1803    62    infeasible                            0.0000  1018175         
   1821    64        0.0000   216                      0.0000  1030036         
Elapsed time = 351.10 sec. (386925.66 ticks, tree = 0.15 MB, solutions = 0)
   1842    65    infeasible                            0.0000  1040910         
   1864    63        0.0000   257                      0.0000  1053677         
   1882    65    infeasible                            0.0000  1066446         

Performing restart 1

Repeating presolve.
Tried aggregator 1 time.
MIP Presolve eliminated 0 rows and 1 columns.
MIP Presolve modified 14253 coefficients.
Reduced MIP has 1211 rows, 4799 columns, and 48191 nonzeros.
Reduced MIP has 4799 binaries, 0 generals, 0 SOSs, and 0 indicators.
Presolve time = 0.05 sec. (43.39 ticks)
Tried aggregator 1 time.
MIP Presolve eliminated 2 rows and 397 columns.
Reduced MIP has 1209 rows, 4402 columns, and 42492 nonzeros.
Reduced MIP has 4402 binaries, 0 generals, 0 SOSs, and 0 indicators.
Presolve time = 0.03 sec. (20.95 ticks)
Tried aggregator 1 time.
Reduced MIP has 1209 rows, 4402 columns, and 42492 nonzeros.
Reduced MIP has 4402 binaries, 0 generals, 0 SOSs, and 0 indicators.
Presolve time = 0.03 sec. (26.81 ticks)
Represolve time = 0.39 sec. (256.19 ticks)

Clique cuts applied:  2
Zero-half cuts applied:  10

Root node processing (before b&c):
  Real time             =   32.43 sec. (35262.39 ticks)
Sequential b&c:
  Real time             =  333.33 sec. (367764.51 ticks)
                          ------------
Total (root+branch&cut) =  365.76 sec. (403026.90 ticks)
Version identifier: 22.1.0.0 | 2022-03-09 | 1a383f8ce
CPXPARAM_Threads                                 1
CPXPARAM_MIP_Strategy_VariableSelect             3
CPXPARAM_TimeLimit                               234.18819176
Tried aggregator 1 time.
MIP Presolve eliminated 13 rows and 0 columns.
MIP Presolve modified 1 coefficients.
Reduced MIP has 1205 rows, 4776 columns, and 51510 nonzeros.
Reduced MIP has 4776 binaries, 0 generals, 0 SOSs, and 0 indicators.
Presolve time = 0.03 sec. (25.38 ticks)
Probing time = 0.01 sec. (5.36 ticks)
Tried aggregator 1 time.
Detecting symmetries...
Reduced MIP has 1205 rows, 4776 columns, and 51510 nonzeros.
Reduced MIP has 4776 binaries, 0 generals, 0 SOSs, and 0 indicators.
Presolve time = 0.03 sec. (31.00 ticks)
Probing time = 0.01 sec. (5.36 ticks)
Clique table members: 791.
MIP emphasis: balance optimality and feasibility.
MIP search method: dynamic search.
Parallel mode: none, using 1 thread.
Root relaxation solution time = 0.51 sec. (556.85 ticks)

        Nodes                                         Cuts/
   Node  Left     Objective  IInf  Best Integer    Best Bound    ItCnt     Gap

      0     0        0.0000   852                      0.0000     2770         
      0     0        0.0000   364                     Cuts: 2     3206         
      0     0        0.0000   558                    Cuts: 56     6004         
      0     0        0.0000   416                     Cuts: 3     7509         
      0     0        0.0000   506                     Cuts: 8    10202         
      0     2        0.0000   252                      0.0000    10202         
Elapsed time = 21.29 sec. (23051.60 ticks, tree = 0.01 MB, solutions = 0)
      1     3        0.0000   426                      0.0000    14843         
      2     4        0.0000   601                      0.0000    17848         
      3     4        0.0000   492                      0.0000    22535         
      4     5        0.0000   470                      0.0000    22569         
      5     6        0.0000   469                      0.0000    25311         
      6     6        0.0000   482                      0.0000    26814         
      8     7        0.0000   791                      0.0000    28048         
      9     8        0.0000   465                      0.0000    28401         
     10     9        0.0000   469                      0.0000    29145         
     14    13        0.0000   507                      0.0000    32184         
Elapsed time = 28.19 sec. (30666.89 ticks, tree = 0.09 MB, solutions = 0)
     18    16        0.0000   798                      0.0000    34508         
     22    20        0.0000   483                      0.0000    38106         
     26    24        0.0000   469                      0.0000    41737         
     30    25        0.0000   551                      0.0000    43264         
     35    28        0.0000   480                      0.0000    45435         
     39    31        0.0000   465                      0.0000    56314         
     40    31        0.0000   424                      0.0000    56736         
     46    33        0.0000   471                      0.0000    65589         
     50    36        0.0000   485                      0.0000    69939         
     53    39        0.0000   429                      0.0000    75617         
Elapsed time = 40.43 sec. (43587.51 ticks, tree = 0.40 MB, solutions = 0)
     56    42        0.0000   551                      0.0000    81275         
     60    44        0.0000   494                      0.0000    86517         
     62    46        0.0000   476                      0.0000    90924         
     65    48        0.0000   432                      0.0000    98550         
     68    49        0.0000   436                      0.0000   101510         
     74    53        0.0000   421                      0.0000   106413         
     79    55        0.0000   410                      0.0000   110721         
     86    59        0.0000   319                      0.0000   121904         
     91    62        0.0000   248                      0.0000   134339         
     96    63    infeasible                            0.0000   144000         
Elapsed time = 52.75 sec. (55796.65 ticks, tree = 0.66 MB, solutions = 0)
    102    65    infeasible                            0.0000   151846         
    106    63    infeasible                            0.0000   156869         
    108    61    infeasible                            0.0000   162642         
    110    59    infeasible                            0.0000   163524         
    112    57    infeasible                            0.0000   166626         
    114    56        0.0000   408                      0.0000   171245         
    119    58        0.0000   402                      0.0000   172710         
    125    59    infeasible                            0.0000   181420         
    131    60    infeasible                            0.0000   185054         
    136    61    infeasible                            0.0000   197908         
Elapsed time = 65.24 sec. (68263.29 ticks, tree = 0.63 MB, solutions = 0)
    144    61    infeasible                            0.0000   200320         
    152    61    infeasible                            0.0000   202318         
    160    63        0.0000   341                      0.0000   204484         
    166    62        0.0000   333                      0.0000   207097         
    173    63        0.0000   323                      0.0000   209396         
    179    63        0.0000   328                      0.0000   211701         
    184    62    infeasible                            0.0000   215564         
    190    62    infeasible                            0.0000   224139         
    197    63        0.0000   327                      0.0000   228171         
    203    64    infeasible                            0.0000   232934         
Elapsed time = 74.65 sec. (78283.93 ticks, tree = 0.65 MB, solutions = 0)
    209    64    infeasible                            0.0000   242351         
    216    68        0.0000   268                      0.0000   245205         
    224    68    infeasible                            0.0000   251805         
    231    67    infeasible                            0.0000   256820         
    239    65    infeasible                            0.0000   264282         
    247    67        0.0000   280                      0.0000   267971         
    256    64    infeasible                            0.0000   274755         
    264    66        0.0000   310                      0.0000   279277         
    271    68        0.0000   299                      0.0000   284388         
    278    67    infeasible                            0.0000   291995         
Elapsed time = 85.10 sec. (88630.94 ticks, tree = 0.70 MB, solutions = 0)
    285    68        0.0000   302                      0.0000   297068         
    291    66    infeasible                            0.0000   306428         
    299    66    infeasible                            0.0000   317825         
    306    67        0.0000   305                      0.0000   322459         
    313    66    infeasible                            0.0000   327061         
    321    66        0.0000   312                      0.0000   339575         
    326    69        0.0000   335                      0.0000   347403         
    334    73        0.0000   302                      0.0000   350257         
    340    74    infeasible                            0.0000   355293         
    348    75        0.0000   314                      0.0000   358429         
Elapsed time = 95.36 sec. (98767.08 ticks, tree = 0.78 MB, solutions = 0)
    356    75        0.0000   333                      0.0000   364030         
    365    75        0.0000   304                      0.0000   369034         
    373    75        0.0000   361                      0.0000   374102         
    381    75        0.0000   339                      0.0000   378506         
    389    75        0.0000   313                      0.0000   383467         
    396    74    infeasible                            0.0000   389945         
    405    75        0.0000   337                      0.0000   392990         
    413    75    infeasible                            0.0000   399596         
    420    74        0.0000   326                      0.0000   404441         
    427    75    infeasible                            0.0000   406665         
Elapsed time = 105.70 sec. (109122.59 ticks, tree = 0.79 MB, solutions = 0)
    435    75    infeasible                            0.0000   411302         
    442    75    infeasible                            0.0000   416227         
    449    76        0.0000   309                      0.0000   421869         
    457    74    infeasible                            0.0000   428062         
    465    74    infeasible                            0.0000   433166         
    474    75        0.0000   327                      0.0000   438128         
    481    74        0.0000   287                      0.0000   444417         
    490    73    infeasible                            0.0000   450178         
    498    73    infeasible                            0.0000   456216         
    504    73    infeasible                            0.0000   462691         
Elapsed time = 115.64 sec. (119178.82 ticks, tree = 0.77 MB, solutions = 0)
    511    73        0.0000   344                      0.0000   469321         
    518    72    infeasible                            0.0000   476105         
    522    71    infeasible                            0.0000   483555         
    530    72        0.0000   327                      0.0000   486878         
    538    72        0.0000   320                      0.0000   491475         
    545    71    infeasible                            0.0000   499021         
    554    71        0.0000   336                      0.0000   504200         
    560    71        0.0000   348                      0.0000   507443         
    568    69    infeasible                            0.0000   513423         
    602    66        0.0000   339                      0.0000   531323         
Elapsed time = 129.11 sec. (132610.35 ticks, tree = 0.67 MB, solutions = 0)
    620    68        0.0000   306                      0.0000   549593         
    646    69    infeasible                            0.0000   568401         
    672    70        0.0000   253                      0.0000   583050         
    693    69        0.0000   328                      0.0000   602756         
    721    72        0.0000   318                      0.0000   621979         
    751    73        0.0000   249                      0.0000   639910         
    778    71    infeasible                            0.0000   656755         
    805    71        0.0000   310                      0.0000   679028         
    836    71    infeasible                            0.0000   699556         
    859    73        0.0000   264                      0.0000   718468         
Elapsed time = 168.03 sec. (171587.55 ticks, tree = 0.75 MB, solutions = 0)
    887    70    infeasible                            0.0000   737054         
    914    71        0.0000   337                      0.0000   754162         
    940    72        0.0000   335                      0.0000   775972         
    963    72    infeasible                            0.0000   795167         
    989    72    infeasible                            0.0000   811595         
   1017    74        0.0000   317                      0.0000   835448         
   1045    71    infeasible                            0.0000   851035         
   1074    68        0.0000   319                      0.0000   873363         
   1098    67    infeasible                            0.0000   896519         
   1119    71        0.0000   284                      0.0000   921087         
Elapsed time = 208.12 sec. (212088.58 ticks, tree = 0.73 MB, solutions = 0)
   1141    71    infeasible                            0.0000   949148         
   1163    73        0.0000   302                      0.0000   965024         
   1185    74    infeasible                            0.0000   989237         
   1208    78        0.0000   342                      0.0000  1002177         
   1226    76    infeasible                            0.0000  1014729         
   1251    77    infeasible                            0.0000  1035007         

Clique cuts applied:  19
Cover cuts applied:  1
Zero-half cuts applied:  13

Root node processing (before b&c):
  Real time             =   21.23 sec. (22997.12 ticks)
Sequential b&c:
  Real time             =  212.96 sec. (215542.09 ticks)
                          ------------
Total (root+branch&cut) =  234.19 sec. (238539.21 ticks)
Primal:	3
Dual:	199
Status:	Feasible
Time:	600.025
Sequence:
	14
	6
	6
